Cu 
 1.0000000000000000
    1.8 0 0
    0 1.8 0
    0 0 2.5
 Cu 
   2
Direct
  0.0000000000000000 -0.0000000000000000  0.0000000000000000
  0.5 0.5 0.5
